20 10000000
3945922 9956728 7258742 8053736 4863959 4583687 1028622 8745255 9805833 9441489 7766836 2679581 3544038 1837635 4210973 9382770 4648046 3806048 9108406 9804961
6141651 6339860 -1678350 -5507131 1094819 -8380922 9400286 7324190 -5837233 7564655 -8274189 6172250 -3077497 8953665 1353415 8325314 845173 -19081 5542885 -7910259
